Route #1: 47 18 38 63 60 57 42 46 4 16 7
Route #2: 68 22 26 43 55 37 51 49 17 11
Route #3: 33 64 2 40 69 39 9 41 21 36 14 45
Route #4: 67 30 23 52 31 10 24 13 34 8 54
Route #5: 50
Route #6: 20 32 19 3 65 62
Route #7: 35 15 66 61 48 56 5 28 1
Route #8: 44 58 53 29 12
Route #9: 59 25 27 6
cost 1887.5184662316847
